NAME: map1_180
TYPE: TSP
COMMENT: autogenerated using a wonderful map creator
DIMENSION: 210
EDGE_WEIGHT_TYPE: EUC_2D
NODE_COORD_SECTION
1 9.0 62.0
2 10.0 62.0
3 11.0 62.0
4 46.0 58.0
5 46.0 59.0
6 46.0 60.0
7 34.0 6.0
8 34.0 5.0
9 34.0 4.0
10 58.0 22.0
11 58.0 21.0
12 58.0 20.0
13 6.0 7.0
14 6.0 6.0
15 6.0 5.0
16 12.0 62.0
17 13.0 62.0
18 14.0 62.0
19 46.0 61.0
20 46.0 62.0
21 46.0 63.0
22 58.0 19.0
23 58.0 18.0
24 58.0 17.0
25 34.0 3.0
26 34.0 2.0
27 34.0 1.0
28 6.0 4.0
29 6.0 3.0
30 6.0 2.0
31 9.0 63.0
32 10.0 63.0
33 11.0 63.0
34 47.0 58.0
35 47.0 59.0
36 47.0 60.0
37 33.0 6.0
38 33.0 5.0
39 33.0 4.0
40 57.0 22.0
41 57.0 21.0
42 57.0 20.0
43 7.0 7.0
44 7.0 6.0
45 7.0 5.0
46 12.0 63.0
47 13.0 63.0
48 14.0 63.0
49 47.0 61.0
50 47.0 62.0
51 47.0 63.0
52 57.0 19.0
53 57.0 18.0
54 57.0 17.0
55 33.0 3.0
56 33.0 2.0
57 33.0 1.0
58 7.0 4.0
59 7.0 3.0
60 7.0 2.0
61 12.0 4.0
62 15.0 21.0
63 47.0 7.0
64 44.0 54.0
65 3.0 13.0
66 38.0 44.0
67 25.0 59.0
68 5.0 19.0
69 45.0 37.0
70 23.0 34.0
71 41.0 15.0
72 50.0 27.0
73 58.0 49.0
74 44.0 29.0
75 13.0 26.0
76 53.0 7.0
77 44.0 38.0
78 54.0 15.0
79 61.0 63.0
80 27.0 6.0
81 17.0 60.0
82 54.0 33.0
83 49.0 46.0
84 12.0 27.0
85 57.0 4.0
86 37.0 35.0
87 31.0 49.0
88 33.0 31.0
89 15.0 25.0
90 19.0 41.0
91 18.0 21.0
92 10.0 47.0
93 27.0 63.0
94 20.0 24.0
95 14.0 17.0
96 46.0 52.0
97 12.0 29.0
98 15.0 46.0
99 14.0 35.0
100 18.0 51.0
101 42.0 18.0
102 49.0 11.0
103 18.0 5.0
104 41.0 37.0
105 45.0 53.0
106 44.0 33.0
107 19.0 34.0
108 52.0 46.0
109 19.0 43.0
110 17.0 55.0
111 12.0 13.0
112 6.0 27.0
113 28.0 9.0
114 29.0 38.0
115 41.0 3.0
116 29.0 47.0
117 3.0 28.0
118 49.0 59.0
119 6.0 54.0
120 18.0 7.0
121 1.0 21.0
122 20.0 10.0
123 30.0 54.0
124 51.0 52.0
125 58.0 3.0
126 38.0 34.0
127 26.0 41.0
128 51.0 6.0
129 41.0 14.0
130 18.0 55.0
131 45.0 39.0
132 19.0 20.0
133 55.0 49.0
134 11.0 34.0
135 12.0 8.0
136 5.0 57.0
137 41.0 53.0
138 22.0 27.0
139 3.0 23.0
140 55.0 24.0
141 1.0 53.0
142 38.0 63.0
143 36.0 29.0
144 59.0 31.0
145 15.0 6.0
146 13.0 18.0
147 19.0 31.0
148 28.0 43.0
149 25.0 35.0
150 30.0 58.0
151 21.0 22.0
152 38.0 38.0
153 51.0 10.0
154 23.0 28.0
155 33.0 60.0
156 36.0 22.0
157 25.0 1.0
158 10.0 12.0
159 47.0 31.0
160 28.0 27.0
161 63.0 58.0
162 8.0 33.0
163 36.0 49.0
164 10.0 30.0
165 49.0 13.0
166 31.0 62.0
167 29.0 19.0
168 46.0 35.0
169 26.0 29.0
170 46.0 44.0
171 24.0 41.0
172 6.0 35.0
173 62.0 34.0
174 28.0 20.0
175 46.0 1.0
176 55.0 46.0
177 19.0 26.0
178 37.0 41.0
179 2.0 19.0
180 22.0 52.0
181 49.0 15.0
182 30.0 44.0
183 6.0 10.0
184 57.0 37.0
185 52.0 50.0
186 53.0 15.0
187 29.0 30.0
188 4.0 10.0
189 27.0 60.0
190 44.0 46.0
191 6.0 46.0
192 5.0 20.0
193 42.0 21.0
194 53.0 51.0
195 14.0 41.0
196 43.0 22.0
197 31.0 2.0
198 20.0 2.0
199 38.0 17.0
200 43.0 31.0
201 31.0 11.0
202 52.0 34.0
203 5.0 47.0
204 12.0 7.0
205 58.0 4.0
206 18.0 20.0
207 4.0 12.0
208 58.0 13.0
209 61.0 9.0
210 36.0 19.0
211 31.0 41.0
212 57.0 5.0
213 9.0 20.0
214 17.0 33.0
215 12.0 46.0
216 2.0 23.0
217 4.0 42.0
218 51.0 37.0
219 3.0 52.0
220 1.0 27.0
221 55.0 7.0
222 1.0 36.0
223 27.0 9.0
224 31.0 34.0
225 11.0 10.0
226 4.0 44.0
227 43.0 44.0
228 13.0 40.0
229 17.0 1.0
230 61.0 13.0
231 62.0 42.0
232 25.0 2.0
233 45.0 35.0
234 63.0 50.0
235 45.0 44.0
236 51.0 23.0
237 11.0 21.0
238 22.0 51.0
239 43.0 28.0
240 21.0 7.0
START_DEPOT_SECTION
1
2
3
4
5
6
7
8
9
10
11
12
13
14
15
16
17
18
19
20
21
22
23
24
25
26
27
28
29
30
-1
END_DEPOT_SECTION
31
32
33
34
35
36
37
38
39
40
41
42
43
44
45
46
47
48
49
50
51
52
53
54
55
56
57
58
59
60
-1
EOF
